p cnf 200 1110
-101 88 0
-101 3 0
-101 91 0
-101 94 0
-101 -63 0
-101 70 0
-101 65 0
-101 71 0
-101 -37 0
-101 64 0
101 -88 -3 -91 -94 63 -70 -65 -71 37 -64 0
-102 43 0
-102 -89 0
-102 80 0
-102 -29 0
-102 12 0
-102 -65 0
-102 -7 0
-102 -37 0
-102 30 0
-102 23 0
102 -43 89 -80 29 -12 65 7 37 -30 -23 0
-103 13 0
-103 2 0
-103 -51 0
-103 -93 0
-103 -10 0
-103 44 0
-103 100 0
-103 96 0
-103 7 0
-103 9 0
103 -13 -2 51 93 10 -44 -100 -96 -7 -9 0
-104 85 0
-104 33 0
-104 36 0
-104 24 0
-104 70 0
-104 54 0
-104 29 0
-104 -47 0
-104 30 0
-104 -91 0
104 -85 -33 -36 -24 -70 -54 -29 47 -30 91 0
-105 -19 0
-105 -79 0
-105 -55 0
-105 48 0
-105 10 0
-105 36 0
-105 -7 0
-105 90 0
-105 -67 0
-105 23 0
105 19 79 55 -48 -10 -36 7 -90 67 -23 0
-106 86 0
-106 27 0
-106 -92 0
-106 53 0
-106 -83 0
-106 -41 0
-106 -80 0
-106 44 0
-106 -89 0
-106 -69 0
106 -86 -27 92 -53 83 41 80 -44 89 69 0
-107 -42 0
-107 86 0
-107 32 0
-107 -97 0
-107 11 0
-107 94 0
-107 -51 0
-107 -20 0
-107 -91 0
-107 -65 0
107 42 -86 -32 97 -11 -94 51 20 91 65 0
-108 92 0
-108 -6 0
-108 -62 0
-108 34 0
-108 -58 0
-108 18 0
-108 55 0
-108 75 0
-108 -24 0
-108 -33 0
108 -92 6 62 -34 58 -18 -55 -75 24 33 0
-109 66 0
-109 34 0
-109 20 0
-109 23 0
-109 40 0
-109 77 0
-109 28 0
-109 55 0
-109 -78 0
-109 -67 0
109 -66 -34 -20 -23 -40 -77 -28 -55 78 67 0
-110 69 0
-110 88 0
-110 22 0
-110 8 0
-110 67 0
-110 48 0
-110 -94 0
-110 37 0
-110 -30 0
-110 24 0
110 -69 -88 -22 -8 -67 -48 94 -37 30 -24 0
101 102 103 104 105 106 107 108 109 110 0
-111 -14 0
-111 94 0
-111 -12 0
-111 79 0
-111 -25 0
-111 68 0
-111 -100 0
-111 -5 0
-111 -86 0
-111 -10 0
111 14 -94 12 -79 25 -68 100 5 86 10 0
-112 32 0
-112 -6 0
-112 -41 0
-112 -67 0
-112 29 0
-112 21 0
-112 -75 0
-112 52 0
-112 10 0
-112 -50 0
112 -32 6 41 67 -29 -21 75 -52 -10 50 0
-113 -19 0
-113 -74 0
-113 18 0
-113 60 0
-113 -70 0
-113 91 0
-113 65 0
-113 21 0
-113 -36 0
-113 34 0
113 19 74 -18 -60 70 -91 -65 -21 36 -34 0
-114 -97 0
-114 -10 0
-114 -99 0
-114 -49 0
-114 -67 0
-114 86 0
-114 85 0
-114 -71 0
-114 65 0
-114 73 0
114 97 10 99 49 67 -86 -85 71 -65 -73 0
-115 -48 0
-115 68 0
-115 38 0
-115 87 0
-115 -26 0
-115 78 0
-115 3 0
-115 76 0
-115 55 0
-115 75 0
115 48 -68 -38 -87 26 -78 -3 -76 -55 -75 0
-116 62 0
-116 -30 0
-116 -48 0
-116 11 0
-116 -42 0
-116 -76 0
-116 -27 0
-116 41 0
-116 4 0
-116 -55 0
116 -62 30 48 -11 42 76 27 -41 -4 55 0
-117 16 0
-117 79 0
-117 90 0
-117 -53 0
-117 23 0
-117 20 0
-117 -87 0
-117 68 0
-117 72 0
-117 35 0
117 -16 -79 -90 53 -23 -20 87 -68 -72 -35 0
-118 -87 0
-118 -20 0
-118 76 0
-118 66 0
-118 -54 0
-118 -78 0
-118 -84 0
-118 -97 0
-118 -62 0
-118 5 0
118 87 20 -76 -66 54 78 84 97 62 -5 0
-119 99 0
-119 -78 0
-119 -79 0
-119 -9 0
-119 97 0
-119 -49 0
-119 72 0
-119 90 0
-119 -48 0
-119 -23 0
119 -99 78 79 9 -97 49 -72 -90 48 23 0
-120 -84 0
-120 40 0
-120 70 0
-120 -17 0
-120 -76 0
-120 -14 0
-120 58 0
-120 7 0
-120 33 0
-120 -48 0
120 84 -40 -70 17 76 14 -58 -7 -33 48 0
111 112 113 114 115 116 117 118 119 120 0
-121 53 0
-121 -4 0
-121 -92 0
-121 -41 0
-121 -20 0
-121 -31 0
-121 -71 0
-121 3 0
-121 -49 0
-121 -65 0
121 -53 4 92 41 20 31 71 -3 49 65 0
-122 86 0
-122 -3 0
-122 2 0
-122 -48 0
-122 39 0
-122 68 0
-122 38 0
-122 -67 0
-122 -50 0
-122 35 0
122 -86 3 -2 48 -39 -68 -38 67 50 -35 0
-123 43 0
-123 -20 0
-123 -71 0
-123 -40 0
-123 31 0
-123 -95 0
-123 -85 0
-123 94 0
-123 -41 0
-123 -63 0
123 -43 20 71 40 -31 95 85 -94 41 63 0
-124 58 0
-124 8 0
-124 51 0
-124 -54 0
-124 59 0
-124 53 0
-124 -62 0
-124 91 0
-124 -38 0
-124 -29 0
124 -58 -8 -51 54 -59 -53 62 -91 38 29 0
-125 19 0
-125 41 0
-125 47 0
-125 30 0
-125 -94 0
-125 99 0
-125 -25 0
-125 4 0
-125 -10 0
-125 71 0
125 -19 -41 -47 -30 94 -99 25 -4 10 -71 0
-126 52 0
-126 -94 0
-126 -13 0
-126 -48 0
-126 -35 0
-126 31 0
-126 47 0
-126 -14 0
-126 17 0
-126 57 0
126 -52 94 13 48 35 -31 -47 14 -17 -57 0
-127 -68 0
-127 -42 0
-127 -97 0
-127 58 0
-127 60 0
-127 1 0
-127 -3 0
-127 -30 0
-127 -61 0
-127 19 0
127 68 42 97 -58 -60 -1 3 30 61 -19 0
-128 78 0
-128 -66 0
-128 -24 0
-128 -6 0
-128 22 0
-128 -57 0
-128 33 0
-128 74 0
-128 17 0
-128 -46 0
128 -78 66 24 6 -22 57 -33 -74 -17 46 0
-129 61 0
-129 -72 0
-129 52 0
-129 19 0
-129 -64 0
-129 9 0
-129 68 0
-129 53 0
-129 54 0
-129 -93 0
129 -61 72 -52 -19 64 -9 -68 -53 -54 93 0
-130 -51 0
-130 43 0
-130 19 0
-130 50 0
-130 74 0
-130 5 0
-130 -26 0
-130 52 0
-130 -18 0
-130 27 0
130 51 -43 -19 -50 -74 -5 26 -52 18 -27 0
121 122 123 124 125 126 127 128 129 130 0
-131 -14 0
-131 86 0
-131 25 0
-131 -66 0
-131 -68 0
-131 27 0
-131 -44 0
-131 23 0
-131 -17 0
-131 -43 0
131 14 -86 -25 66 68 -27 44 -23 17 43 0
-132 -75 0
-132 -70 0
-132 -98 0
-132 30 0
-132 86 0
-132 54 0
-132 -63 0
-132 99 0
-132 18 0
-132 -64 0
132 75 70 98 -30 -86 -54 63 -99 -18 64 0
-133 97 0
-133 69 0
-133 2 0
-133 78 0
-133 -68 0
-133 73 0
-133 -5 0
-133 -30 0
-133 4 0
-133 24 0
133 -97 -69 -2 -78 68 -73 5 30 -4 -24 0
-134 -31 0
-134 -26 0
-134 -81 0
-134 28 0
-134 11 0
-134 51 0
-134 8 0
-134 -71 0
-134 -32 0
-134 84 0
134 31 26 81 -28 -11 -51 -8 71 32 -84 0
-135 -97 0
-135 -13 0
-135 54 0
-135 -94 0
-135 61 0
-135 -79 0
-135 27 0
-135 35 0
-135 -20 0
-135 -3 0
135 97 13 -54 94 -61 79 -27 -35 20 3 0
-136 -27 0
-136 -12 0
-136 30 0
-136 -13 0
-136 -54 0
-136 -85 0
-136 -46 0
-136 -93 0
-136 99 0
-136 -45 0
136 27 12 -30 13 54 85 46 93 -99 45 0
-137 87 0
-137 -69 0
-137 65 0
-137 -24 0
-137 -31 0
-137 -25 0
-137 -59 0
-137 -63 0
-137 -21 0
-137 -83 0
137 -87 69 -65 24 31 25 59 63 21 83 0
-138 -9 0
-138 -48 0
-138 -90 0
-138 87 0
-138 -34 0
-138 -76 0
-138 -61 0
-138 -29 0
-138 69 0
-138 -22 0
138 9 48 90 -87 34 76 61 29 -69 22 0
-139 36 0
-139 -31 0
-139 -26 0
-139 91 0
-139 62 0
-139 90 0
-139 52 0
-139 97 0
-139 -32 0
-139 57 0
139 -36 31 26 -91 -62 -90 -52 -97 32 -57 0
-140 30 0
-140 26 0
-140 14 0
-140 -31 0
-140 56 0
-140 32 0
-140 -50 0
-140 80 0
-140 -45 0
-140 73 0
140 -30 -26 -14 31 -56 -32 50 -80 45 -73 0
131 132 133 134 135 136 137 138 139 140 0
-141 99 0
-141 -85 0
-141 66 0
-141 84 0
-141 20 0
-141 13 0
-141 58 0
-141 -3 0
-141 -95 0
-141 54 0
141 -99 85 -66 -84 -20 -13 -58 3 95 -54 0
-142 84 0
-142 92 0
-142 -19 0
-142 -52 0
-142 -14 0
-142 -96 0
-142 95 0
-142 9 0
-142 -60 0
-142 -13 0
142 -84 -92 19 52 14 96 -95 -9 60 13 0
-143 -10 0
-143 97 0
-143 -42 0
-143 73 0
-143 24 0
-143 9 0
-143 3 0
-143 -66 0
-143 -65 0
-143 -27 0
143 10 -97 42 -73 -24 -9 -3 66 65 27 0
-144 42 0
-144 38 0
-144 7 0
-144 -26 0
-144 29 0
-144 -46 0
-144 5 0
-144 64 0
-144 50 0
-144 -16 0
144 -42 -38 -7 26 -29 46 -5 -64 -50 16 0
-145 -51 0
-145 -53 0
-145 38 0
-145 55 0
-145 -18 0
-145 79 0
-145 -58 0
-145 -16 0
-145 59 0
-145 90 0
145 51 53 -38 -55 18 -79 58 16 -59 -90 0
-146 -12 0
-146 -60 0
-146 45 0
-146 90 0
-146 -41 0
-146 -26 0
-146 65 0
-146 25 0
-146 62 0
-146 -71 0
146 12 60 -45 -90 41 26 -65 -25 -62 71 0
-147 18 0
-147 76 0
-147 72 0
-147 29 0
-147 -7 0
-147 -39 0
-147 34 0
-147 -23 0
-147 -69 0
-147 95 0
147 -18 -76 -72 -29 7 39 -34 23 69 -95 0
-148 99 0
-148 45 0
-148 12 0
-148 74 0
-148 -50 0
-148 58 0
-148 49 0
-148 -34 0
-148 76 0
-148 46 0
148 -99 -45 -12 -74 50 -58 -49 34 -76 -46 0
-149 -54 0
-149 27 0
-149 30 0
-149 -6 0
-149 63 0
-149 -44 0
-149 61 0
-149 -97 0
-149 89 0
-149 -86 0
149 54 -27 -30 6 -63 44 -61 97 -89 86 0
-150 63 0
-150 -35 0
-150 23 0
-150 82 0
-150 -69 0
-150 -95 0
-150 -42 0
-150 -17 0
-150 4 0
-150 74 0
150 -63 35 -23 -82 69 95 42 17 -4 -74 0
141 142 143 144 145 146 147 148 149 150 0
-151 100 0
-151 58 0
-151 87 0
-151 -23 0
-151 80 0
-151 68 0
-151 -75 0
-151 -43 0
-151 -64 0
-151 77 0
151 -100 -58 -87 23 -80 -68 75 43 64 -77 0
-152 -19 0
-152 -45 0
-152 -63 0
-152 38 0
-152 16 0
-152 -71 0
-152 -98 0
-152 88 0
-152 83 0
-152 22 0
152 19 45 63 -38 -16 71 98 -88 -83 -22 0
-153 -61 0
-153 80 0
-153 22 0
-153 -72 0
-153 -20 0
-153 78 0
-153 -98 0
-153 51 0
-153 16 0
-153 82 0
153 61 -80 -22 72 20 -78 98 -51 -16 -82 0
-154 55 0
-154 52 0
-154 -58 0
-154 75 0
-154 16 0
-154 -67 0
-154 8 0
-154 13 0
-154 -70 0
-154 -72 0
154 -55 -52 58 -75 -16 67 -8 -13 70 72 0
-155 -85 0
-155 -56 0
-155 -14 0
-155 -41 0
-155 71 0
-155 -42 0
-155 17 0
-155 84 0
-155 -24 0
-155 -47 0
155 85 56 14 41 -71 42 -17 -84 24 47 0
-156 86 0
-156 51 0
-156 -91 0
-156 39 0
-156 -4 0
-156 -87 0
-156 13 0
-156 97 0
-156 41 0
-156 79 0
156 -86 -51 91 -39 4 87 -13 -97 -41 -79 0
-157 34 0
-157 -44 0
-157 75 0
-157 -33 0
-157 -67 0
-157 18 0
-157 -24 0
-157 -97 0
-157 -4 0
-157 3 0
157 -34 44 -75 33 67 -18 24 97 4 -3 0
-158 -71 0
-158 58 0
-158 49 0
-158 -52 0
-158 -67 0
-158 15 0
-158 -10 0
-158 30 0
-158 -1 0
-158 -27 0
158 71 -58 -49 52 67 -15 10 -30 1 27 0
-159 -77 0
-159 69 0
-159 78 0
-159 -38 0
-159 76 0
-159 -59 0
-159 -67 0
-159 -89 0
-159 -81 0
-159 -45 0
159 77 -69 -78 38 -76 59 67 89 81 45 0
-160 -75 0
-160 99 0
-160 80 0
-160 -54 0
-160 49 0
-160 59 0
-160 60 0
-160 -77 0
-160 -41 0
-160 26 0
160 75 -99 -80 54 -49 -59 -60 77 41 -26 0
151 152 153 154 155 156 157 158 159 160 0
-161 -69 0
-161 19 0
-161 61 0
-161 15 0
-161 -42 0
-161 33 0
-161 35 0
-161 -48 0
-161 -31 0
-161 12 0
161 69 -19 -61 -15 42 -33 -35 48 31 -12 0
-162 -73 0
-162 89 0
-162 -16 0
-162 52 0
-162 87 0
-162 64 0
-162 1 0
-162 -49 0
-162 53 0
-162 -47 0
162 73 -89 16 -52 -87 -64 -1 49 -53 47 0
-163 8 0
-163 -62 0
-163 80 0
-163 -99 0
-163 -76 0
-163 -22 0
-163 37 0
-163 78 0
-163 6 0
-163 -75 0
163 -8 62 -80 99 76 22 -37 -78 -6 75 0
-164 -51 0
-164 55 0
-164 73 0
-164 -5 0
-164 70 0
-164 -26 0
-164 -27 0
-164 54 0
-164 68 0
-164 -99 0
164 51 -55 -73 5 -70 26 27 -54 -68 99 0
-165 83 0
-165 -28 0
-165 -77 0
-165 -97 0
-165 90 0
-165 51 0
-165 64 0
-165 -61 0
-165 -47 0
-165 30 0
165 -83 28 77 97 -90 -51 -64 61 47 -30 0
-166 37 0
-166 17 0
-166 89 0
-166 -7 0
-166 86 0
-166 75 0
-166 6 0
-166 -41 0
-166 -12 0
-166 74 0
166 -37 -17 -89 7 -86 -75 -6 41 12 -74 0
-167 32 0
-167 -43 0
-167 -17 0
-167 13 0
-167 57 0
-167 -76 0
-167 -37 0
-167 80 0
-167 -63 0
-167 -22 0
167 -32 43 17 -13 -57 76 37 -80 63 22 0
-168 43 0
-168 -80 0
-168 14 0
-168 61 0
-168 -54 0
-168 44 0
-168 -71 0
-168 91 0
-168 -74 0
-168 -95 0
168 -43 80 -14 -61 54 -44 71 -91 74 95 0
-169 -49 0
-169 -55 0
-169 30 0
-169 -43 0
-169 10 0
-169 -88 0
-169 6 0
-169 21 0
-169 -4 0
-169 -17 0
169 49 55 -30 43 -10 88 -6 -21 4 17 0
-170 92 0
-170 32 0
-170 -1 0
-170 -95 0
-170 -68 0
-170 81 0
-170 -76 0
-170 4 0
-170 57 0
-170 69 0
170 -92 -32 1 95 68 -81 76 -4 -57 -69 0
161 162 163 164 165 166 167 168 169 170 0
-171 63 0
-171 70 0
-171 83 0
-171 -24 0
-171 55 0
-171 -84 0
-171 -28 0
-171 -58 0
-171 68 0
-171 -27 0
171 -63 -70 -83 24 -55 84 28 58 -68 27 0
-172 -88 0
-172 -72 0
-172 -12 0
-172 78 0
-172 38 0
-172 3 0
-172 -97 0
-172 -96 0
-172 8 0
-172 -99 0
172 88 72 12 -78 -38 -3 97 96 -8 99 0
-173 3 0
-173 -28 0
-173 71 0
-173 8 0
-173 -27 0
-173 -21 0
-173 22 0
-173 -9 0
-173 -95 0
-173 72 0
173 -3 28 -71 -8 27 21 -22 9 95 -72 0
-174 -35 0
-174 -45 0
-174 -82 0
-174 83 0
-174 -67 0
-174 -38 0
-174 -2 0
-174 -6 0
-174 40 0
-174 18 0
174 35 45 82 -83 67 38 2 6 -40 -18 0
-175 58 0
-175 98 0
-175 35 0
-175 47 0
-175 40 0
-175 -59 0
-175 -73 0
-175 -18 0
-175 -82 0
-175 15 0
175 -58 -98 -35 -47 -40 59 73 18 82 -15 0
-176 43 0
-176 45 0
-176 78 0
-176 -75 0
-176 100 0
-176 98 0
-176 -35 0
-176 38 0
-176 99 0
-176 -95 0
176 -43 -45 -78 75 -100 -98 35 -38 -99 95 0
-177 91 0
-177 39 0
-177 31 0
-177 93 0
-177 49 0
-177 4 0
-177 -84 0
-177 -67 0
-177 89 0
-177 -73 0
177 -91 -39 -31 -93 -49 -4 84 67 -89 73 0
-178 -97 0
-178 22 0
-178 21 0
-178 37 0
-178 6 0
-178 -60 0
-178 20 0
-178 -46 0
-178 -34 0
-178 43 0
178 97 -22 -21 -37 -6 60 -20 46 34 -43 0
-179 -14 0
-179 31 0
-179 -39 0
-179 49 0
-179 -29 0
-179 42 0
-179 78 0
-179 27 0
-179 55 0
-179 72 0
179 14 -31 39 -49 29 -42 -78 -27 -55 -72 0
-180 -41 0
-180 59 0
-180 87 0
-180 -65 0
-180 17 0
-180 -68 0
-180 75 0
-180 -34 0
-180 19 0
-180 -74 0
180 41 -59 -87 65 -17 68 -75 34 -19 74 0
171 172 173 174 175 176 177 178 179 180 0
-181 15 0
-181 -68 0
-181 -7 0
-181 79 0
-181 100 0
-181 99 0
-181 -29 0
-181 11 0
-181 -33 0
-181 90 0
181 -15 68 7 -79 -100 -99 29 -11 33 -90 0
-182 61 0
-182 44 0
-182 16 0
-182 -45 0
-182 14 0
-182 9 0
-182 57 0
-182 -56 0
-182 -91 0
-182 -71 0
182 -61 -44 -16 45 -14 -9 -57 56 91 71 0
-183 -97 0
-183 -98 0
-183 12 0
-183 24 0
-183 -96 0
-183 38 0
-183 29 0
-183 53 0
-183 -33 0
-183 -4 0
183 97 98 -12 -24 96 -38 -29 -53 33 4 0
-184 -48 0
-184 -13 0
-184 50 0
-184 80 0
-184 21 0
-184 -6 0
-184 75 0
-184 92 0
-184 -34 0
-184 5 0
184 48 13 -50 -80 -21 6 -75 -92 34 -5 0
-185 35 0
-185 60 0
-185 57 0
-185 24 0
-185 -80 0
-185 -86 0
-185 71 0
-185 -52 0
-185 62 0
-185 49 0
185 -35 -60 -57 -24 80 86 -71 52 -62 -49 0
-186 -4 0
-186 21 0
-186 48 0
-186 -44 0
-186 -55 0
-186 -63 0
-186 -96 0
-186 -58 0
-186 60 0
-186 -100 0
186 4 -21 -48 44 55 63 96 58 -60 100 0
-187 -41 0
-187 -33 0
-187 86 0
-187 78 0
-187 -80 0
-187 36 0
-187 4 0
-187 47 0
-187 -2 0
-187 -42 0
187 41 33 -86 -78 80 -36 -4 -47 2 42 0
-188 -26 0
-188 -45 0
-188 -65 0
-188 -63 0
-188 -23 0
-188 10 0
-188 -72 0
-188 -47 0
-188 -77 0
-188 51 0
188 26 45 65 63 23 -10 72 47 77 -51 0
-189 14 0
-189 -16 0
-189 66 0
-189 13 0
-189 47 0
-189 63 0
-189 -87 0
-189 41 0
-189 -32 0
-189 39 0
189 -14 16 -66 -13 -47 -63 87 -41 32 -39 0
-190 49 0
-190 45 0
-190 -97 0
-190 62 0
-190 -53 0
-190 -70 0
-190 -46 0
-190 77 0
-190 25 0
-190 95 0
190 -49 -45 97 -62 53 70 46 -77 -25 -95 0
181 182 183 184 185 186 187 188 189 190 0
-191 41 0
-191 45 0
-191 -84 0
-191 -76 0
-191 -67 0
-191 12 0
-191 -59 0
-191 100 0
-191 -34 0
-191 42 0
191 -41 -45 84 76 67 -12 59 -100 34 -42 0
-192 2 0
-192 61 0
-192 52 0
-192 -91 0
-192 82 0
-192 -66 0
-192 -21 0
-192 48 0
-192 -3 0
-192 5 0
192 -2 -61 -52 91 -82 66 21 -48 3 -5 0
-193 -20 0
-193 -99 0
-193 -80 0
-193 84 0
-193 -51 0
-193 -6 0
-193 45 0
-193 27 0
-193 65 0
-193 -92 0
193 20 99 80 -84 51 6 -45 -27 -65 92 0
-194 57 0
-194 -30 0
-194 -27 0
-194 5 0
-194 -92 0
-194 -14 0
-194 -70 0
-194 -51 0
-194 99 0
-194 33 0
194 -57 30 27 -5 92 14 70 51 -99 -33 0
-195 65 0
-195 53 0
-195 -44 0
-195 79 0
-195 61 0
-195 49 0
-195 41 0
-195 -81 0
-195 97 0
-195 59 0
195 -65 -53 44 -79 -61 -49 -41 81 -97 -59 0
-196 86 0
-196 90 0
-196 -80 0
-196 10 0
-196 -61 0
-196 -30 0
-196 -67 0
-196 -31 0
-196 78 0
-196 81 0
196 -86 -90 80 -10 61 30 67 31 -78 -81 0
-197 -46 0
-197 -38 0
-197 -97 0
-197 -90 0
-197 -50 0
-197 -79 0
-197 -81 0
-197 22 0
-197 -37 0
-197 94 0
197 46 38 97 90 50 79 81 -22 37 -94 0
-198 -96 0
-198 -48 0
-198 83 0
-198 89 0
-198 80 0
-198 -37 0
-198 -21 0
-198 -52 0
-198 -66 0
-198 -42 0
198 96 48 -83 -89 -80 37 21 52 66 42 0
-199 -49 0
-199 -91 0
-199 -50 0
-199 14 0
-199 10 0
-199 -45 0
-199 -39 0
-199 55 0
-199 95 0
-199 -69 0
199 49 91 50 -14 -10 45 39 -55 -95 69 0
-200 25 0
-200 2 0
-200 -65 0
-200 -77 0
-200 -39 0
-200 -1 0
-200 48 0
-200 5 0
-200 -60 0
-200 -46 0
200 -25 -2 65 77 39 1 -48 -5 60 46 0
191 192 193 194 195 196 197 198 199 200 0
